
Gurobi 10.0.1 (linux64) logging started Sun Nov 26 15:39:03 2023

Set parameter LogFile to value "ArtificialInstance/ExperimentV2/S2T3K2/AdRo/gurobiDoRo16.txt"
Gurobi Optimizer version 10.0.1 build v10.0.1rc0 (linux64)

CPU model: AMD EPYC 7H12 64-Core Processor, instruction set [SSE2|AVX|AVX2]
Thread count: 128 physical cores, 128 logical processors, using up to 32 threads

Academic license 656792 - for non-commercial use only - registered to b.___@student.vu.nl
Optimize a model with 5150 rows, 5050 columns and 19489 nonzeros
Model fingerprint: 0x59244eff
Variable types: 1 continuous, 5049 integer (5049 binary)
Coefficient statistics:
  Matrix range     [1e+00, 4e+01]
  Objective range  [1e+00, 2e+01]
  Bounds range     [1e+00, 1e+00]
  RHS range        [1e+00, 1e+00]
Presolve removed 2298 rows and 2148 columns
Presolve time: 0.05s
Presolved: 2852 rows, 2902 columns, 11178 nonzeros
Variable types: 1 continuous, 2901 integer (2901 binary)
Found heuristic solution: objective 310.7737189

Root relaxation: objective 8.676929e+01, 752 iterations, 0.01 seconds (0.01 work units)

    Nodes    |    Current Node    |     Objective Bounds      |     Work
 Expl Unexpl |  Obj  Depth IntInf | Incumbent    BestBd   Gap | It/Node Time

H    0     0                      86.7692868   41.09840  52.6%     -    0s
     0     0          -    0        86.76929   86.76929  0.00%     -    0s

Explored 1 nodes (1001 simplex iterations) in 0.09 seconds (0.06 work units)
Thread count was 32 (of 128 available processors)

Solution count 2: 86.7693 310.774 

Optimal solution found (tolerance 1.00e-04)
Best objective 8.676928684772e+01, best bound 8.676928684772e+01, gap 0.0000%
